16  690356
1   5   42    48    64    35    45    
2   6   77    26    33    37    73    60    
3   5   1    12    24    47    62    
4   5   3    13    27    50    63    
5   5   4    14    31    51    65    
6   5   61    18    28    70    68    
7   5   2    17    44    30    69    
8   5   5    15    32    52    71    
9   5   6    16    38    53    72    
10   5   7    19    39    54    74    
11   5   8    20    40    55    75    
12   5   36    57    34    49    25    
13   5   9    21    41    56    76    
14   5   66    67    79    80    29    
15   5   10    22    43    58    78    
16   4   11    23    46    59    

